\ Model MaxExample
\ LP format - for model browsing. Use MPS format to capture full model detail.
Minimize
  30 f_0,0 + 177 f_0,1 + 34 f_1,0 + 132 f_1,1 + 68 f_2,0 + 72 f_2,1
   + 69 f_3,0 + 216 f_3,1 + 25 f_4,0 + 44 f_4,1 + 36 f_5,0 + 27 f_6,0
   + 35 f_6,1 + 86 f_7,0 + 114 f_7,1 + 69 f_8,0 + 64 f_9,0 + 68 f_10,0
   + 88 f_10,1 + 25 f_11,0 + 44 f_11,1 + 44 f_12,0 + 50 f_12,1 + 21 f_13,0
   + 57 f_13,1 + 34 f_14,0 + 36 f_14,1 + 13 f_15,0 + 42 f_16,0 + 108 f_16,1
   + 19 f_17,0 + 39 f_18,0 + 76 f_19,0 + 100 f_19,1 + 24 f_20,0 + 24 f_20,1
   + 52 f_21,0 + 54 f_21,1 + 34 f_22,0 + 30 f_23,0 + 39 f_23,1 + 50 f_24,0
   + 52 f_24,1 + 168 f_25,0 + 244 f_25,1 + 96 f_26,0 + 104 f_27,0
   + 268 f_27,1 + 110 f_28,0 + 140 f_28,1 + 30 f_29,0 + 93 f_30,0
   + 111 f_30,1 + 30 f_31,0 + 152 f_32,0 + 292 f_32,1 + 69 f_33,0
   + 168 f_33,1 + 100 f_34,0 + 205 f_34,1 + 35 f_35,0 + 63 f_36,0
   + 78 f_36,1 + 88 f_37,0 + 100 f_37,1 + 195 f_38,0 + 250 f_38,1
   + 84 f_39,0 + 84 f_39,1 + 1000 s_0 + 0 s_1 + 0 s_2 + 0 s_3 + 0 s_4
   + 1000 s_5 + 1000 s_6 + 1000 s_7 + 0 s_8 + 0 s_9 + 1000 s_10 + 0 s_11
   + 1000 s_12 + 0 s_13 + 1000 s_14 + 0 s_15 + 0 s_16 + 1000 s_17 + 0 s_18
   + 1000 s_19 + 0 s_20 + 1000 s_21 + 0 s_22 + 1000 s_23 + 0 s_24
   + 1000 s_25 + 1000 s_26 + 0 s_27 + 0 s_28 + 1000 s_29
Subject To
 R0: 3 f_0,0 + 2 f_1,0 + 3 f_3,0 + f_4,0 + f_11,0 <= 5
 R1: 2 f_1,0 + 2 f_1,1 + f_6,1 + 2 f_7,1 + 2 f_19,1 + 4 f_25,1 + 5 f_38,1
   <= 5
 R2: 2 f_31,0 <= 2
 R3: 3 f_3,0 + 3 f_3,1 + f_13,1 + 2 f_16,1 + 4 f_27,1 + 4 f_32,1 + 3 f_33,1
   <= 3
 R4: 3 f_0,1 + 2 f_1,1 + 3 f_3,1 + f_4,1 + 2 f_5,0 + f_6,1 + 2 f_7,1
   + f_11,1 + f_13,1 + 2 f_16,1 + 2 f_19,1 + 4 f_25,1 + 4 f_27,1 + 4 f_32,1
   + 3 f_33,1 + 5 f_38,1 <= 4
 R5: f_6,0 + 2 f_7,0 + 2 f_19,0 + 4 f_25,0 + 5 f_38,0 <= 8
 R6: 5 f_34,0 <= 4
 R7: 4 f_2,0 + 2 f_14,0 + 2 f_21,0 + 2 f_24,0 <= 2
 R8: 3 f_0,1 + 2 f_1,1 + 4 f_2,1 + 3 f_3,1 + f_4,0 + f_11,0 + 2 f_14,1
   + 2 f_21,1 + 2 f_24,1 + 5 f_34,1 <= 2
 R9: 3 f_8,0 + 2 f_9,0 + 4 f_10,1 + 3 f_26,0 + 4 f_32,1 <= 8
 R10: 4 f_10,0 + 4 f_32,0 <= 6
 R11: 3 f_0,1 + 2 f_1,1 + 4 f_2,1 + 3 f_3,1 + f_4,1 + 4 f_10,1 + f_11,1
   + 2 f_12,1 + f_13,1 + 2 f_14,1 + 2 f_21,1 + 3 f_23,1 + 2 f_24,1
   + 5 f_34,1 + 3 f_36,0 + 3 f_36,1 + 4 f_37,1 <= 10
 R12: 2 f_12,0 + f_13,0 + 3 f_23,0 + 4 f_32,0 + 4 f_37,0 <= 10
 R13: 3 f_8,0 + 3 f_18,0 + 2 f_19,0 <= 8
 R14: 2 f_7,0 + 2 f_7,1 + 3 f_18,0 + 2 f_21,0 + 2 f_21,1 + 2 f_22,0
   + 3 f_30,0 + 3 f_30,1 + 3 f_39,0 + 3 f_39,1 <= 12
 R15: 3 f_0,1 + 2 f_1,1 + 3 f_3,1 + f_4,1 + 2 f_7,1 + f_11,1 + 2 f_12,1
   + f_13,1 + 2 f_16,0 + 2 f_16,1 + f_17,0 + 3 f_23,1 + 4 f_25,1 + 4 f_27,1
   + 5 f_28,1 + 3 f_30,1 + 4 f_32,1 + 5 f_34,1 + 3 f_36,1 + 4 f_37,1
   + 3 f_39,1 <= 5
 R16: 2 f_9,0 + f_15,0 + 4 f_25,1 + 3 f_26,0 + 4 f_27,1 + 3 f_39,0 <= 10
 R17: 2 f_7,0 + 2 f_19,0 + 5 f_28,0 + 3 f_30,0 <= 5
 R18: <= 3
 R19: 2 f_22,0 + 2 f_24,0 + 2 f_24,1 + 3 f_36,0 <= 5
 R20: 2 f_19,1 + f_20,0 + f_20,1 + 3 f_33,0 + 3 f_33,1 <= 5
 R21: f_13,0 + 2 f_16,0 + 4 f_25,0 + 4 f_27,0 + 4 f_32,0 + 3 f_33,0
   + 5 f_38,0 <= 14
 R22: 3 f_0,1 + 2 f_1,1 + 3 f_3,1 + f_4,1 + 2 f_7,1 + f_11,1 + f_13,1
   + 2 f_16,1 + 2 f_19,1 + 4 f_25,1 + 4 f_27,1 + 5 f_28,1 + 3 f_30,1
   + 4 f_32,1 + 3 f_33,1 + 5 f_34,1 + 3 f_36,1 + 5 f_38,1 <= 4
 R23: 2 f_12,0 + f_20,0 + 4 f_37,0 + 5 f_38,0 <= 8
 R24: 2 f_12,1 + f_17,0 + f_20,1 + 4 f_25,0 + 4 f_27,0 + 4 f_37,1
   + 5 f_38,1 + 3 f_39,1 <= 10
 R25: f_6,0 + f_6,1 + 2 f_29,0 + 3 f_36,0 <= 5
 R26: 4 f_25,0 + 4 f_27,0 + 3 f_39,0 <= 8
 R27: 2 f_12,1 + f_20,1 + 4 f_37,1 + 5 f_38,1 <= 7
 R28: f_6,0 + 5 f_28,1 + 2 f_29,0 + 3 f_30,1 + 7 f_35,0 <= 10
 R29: 4 f_25,0 + 5 f_38,0 <= 5
 R30: f_0,0 + f_0,1 = 1
 R31: f_1,0 + f_1,1 = 1
 R32: f_2,0 + f_2,1 = 1
 R33: f_3,0 + f_3,1 = 1
 R34: f_4,0 + f_4,1 = 1
 R35: f_5,0 = 1
 R36: f_6,0 + f_6,1 = 1
 R37: f_7,0 + f_7,1 = 1
 R38: f_8,0 = 1
 R39: f_9,0 = 1
 R40: f_10,0 + f_10,1 = 1
 R41: f_11,0 + f_11,1 = 1
 R42: f_12,0 + f_12,1 = 1
 R43: f_13,0 + f_13,1 = 1
 R44: f_14,0 + f_14,1 = 1
 R45: f_15,0 = 1
 R46: f_16,0 + f_16,1 = 1
 R47: f_17,0 = 1
 R48: f_18,0 = 1
 R49: f_19,0 + f_19,1 = 1
 R50: f_20,0 + f_20,1 = 1
 R51: f_21,0 + f_21,1 = 1
 R52: f_22,0 = 1
 R53: f_23,0 + f_23,1 = 1
 R54: f_24,0 + f_24,1 = 1
 R55: f_25,0 + f_25,1 = 1
 R56: f_26,0 = 1
 R57: f_27,0 + f_27,1 = 1
 R58: f_28,0 + f_28,1 = 1
 R59: f_29,0 = 1
 R60: f_30,0 + f_30,1 = 1
 R61: f_31,0 = 1
 R62: f_32,0 + f_32,1 = 1
 R63: f_33,0 + f_33,1 = 1
 R64: f_34,0 + f_34,1 = 1
 R65: f_35,0 = 1
 R66: f_36,0 + f_36,1 = 1
 R67: f_37,0 + f_37,1 = 1
 R68: f_38,0 + f_38,1 = 1
 R69: f_39,0 + f_39,1 = 1
Bounds
End
